data;


param d:= 100;
param r:=5;
param p:=0.600000;
param M:=1000;
param U:=
         1         1        5.853108e-01
         2         1        6.495136e-01
         3         1        1.108885e+00
         4         1        3.177387e-01
         5         1        4.011018e-01
         6         1        1.400155e+00
         7         1        1.277039e+00
         8         1       -4.582217e-01
         9         1       -8.155621e-01
        10         1       -1.790803e-01
        11         1       -5.717731e-01
        12         1        1.312597e+00
        13         1        3.149404e-02
        14         1        8.639849e-02
        15         1       -1.629726e-01
        16         1       -3.508260e-01
        17         1        3.317035e-01
        18         1        4.498185e-01
        19         1       -1.032301e+00
        20         1        5.060720e-01
        21         1        5.410159e-01
        22         1        3.238263e+00
        23         1        3.418360e-01
        24         1        2.956967e-01
        25         1        4.084931e-01
        26         1       -8.825267e-01
        27         1        1.602882e+00
        28         1       -6.769663e-02
        29         1        1.627065e+00
        30         1       -4.951329e-01
        31         1        2.587813e-01
        32         1       -2.566212e-01
        33         1       -1.330614e+00
        34         1        1.786695e+00
        35         1        1.691973e+00
        36         1       -1.066404e+00
        37         1        4.319527e-01
        38         1        4.526098e-01
        39         1        5.868081e-01
        40         1       -1.354113e+00
        41         1       -5.826304e-01
        42         1        4.856679e-01
        43         1        1.496687e+00
        44         1       -1.066512e-01
        45         1        5.264586e-01
        46         1        1.248923e+00
        47         1       -7.304352e-01
        48         1       -1.479904e+00
        49         1       -1.139933e+00
        50         1       -3.845745e-01
        51         1        3.790732e-01
        52         1       -2.759094e-01
        53         1       -8.516324e-01
        54         1        2.281938e+00
        55         1       -4.428169e-01
        56         1        3.936202e-01
        57         1        1.498679e+00
        58         1        2.249758e+00
        59         1        5.505753e-01
        60         1        1.181257e+00
        61         1       -9.276616e-01
        62         1       -1.899880e+00
        63         1       -7.640290e-01
        64         1        2.518145e-01
        65         1        9.798942e-01
        66         1        1.571799e-01
        67         1        1.946588e-01
        68         1       -3.647532e-01
        69         1        4.742593e-01
        70         1        2.609944e-01
        71         1        1.307890e+00
        72         1       -4.336371e-01
        73         1       -4.589934e-01
        74         1       -9.654366e-02
        75         1       -8.469049e-01
        76         1       -1.266599e-01
        77         1       -6.372293e-01
        78         1        8.455462e-04
        79         1       -9.856648e-01
        80         1       -8.023187e-01
        81         1       -7.023387e-01
        82         1       -8.657039e-01
        83         1       -4.060105e-01
        84         1        1.205120e-02
        85         1        9.851612e-01
        86         1       -7.667105e-01
        87         1        4.872180e-01
        88         1       -4.942341e-01
        89         1        2.993058e-01
        90         1        1.698701e+00
        91         1       -1.604663e+00
        92         1        1.306969e+00
        93         1        1.652144e+00
        94         1       -8.559072e-01
        95         1        2.141565e+00
        96         1       -2.510889e-01
        97         1       -9.883905e-01
        98         1       -3.544796e-01
        99         1        6.424282e-01
       100         1        6.079997e-01
         1         2        2.511223e+00
         2         2        5.571311e-01
         3         2       -7.678747e-01
         4         2       -1.980203e+00
         5         2       -2.159153e-02
         6         2        3.747845e-01
         7         2        5.655773e-01
         8         2       -3.304980e-01
         9         2        6.378149e-01
        10         2        1.892084e-01
        11         2       -1.644840e-01
        12         2       -7.532525e-01
        13         2       -1.302317e-01
        14         2       -5.754542e-01
        15         2        3.257186e-01
        16         2        6.250069e-01
        17         2        1.156766e+00
        18         2       -5.875585e-01
        19         2        3.669951e-01
        20         2        1.372141e-01
        21         2        2.089271e-01
        22         2        9.084403e-01
        23         2        1.430183e-01
        24         2        2.161606e-01
        25         2        5.301628e-01
        26         2        2.110528e+00
        27         2        7.574182e-01
        28         2        1.718503e-01
        29         2       -3.620831e-01
        30         2       -1.245638e+00
        31         2        6.451916e-01
        32         2        4.724182e-01
        33         2        1.618088e-01
        34         2        1.715581e+00
        35         2        1.860832e-01
        36         2       -3.261697e-01
        37         2        8.606352e-01
        38         2       -2.513674e-01
        39         2       -1.375843e+00
        40         2       -1.090089e+00
        41         2       -6.845997e-01
        42         2        3.598963e-01
        43         2        9.179068e-02
        44         2        1.444603e+00
        45         2        8.346363e-01
        46         2        7.004610e-01
        47         2        1.957382e-01
        48         2       -1.350994e-01
        49         2        1.446974e+00
        50         2       -9.261045e-01
        51         2       -3.128819e-01
        52         2        1.796557e+00
        53         2       -1.558067e+00
        54         2       -6.646035e-01
        55         2        1.447765e-01
        56         2       -5.667920e-01
        57         2        9.867566e-01
        58         2        1.465801e+00
        59         2       -5.900398e-01
        60         2       -8.787764e-01
        61         2       -1.011724e+00
        62         2       -1.649761e+00
        63         2        1.228311e+00
        64         2       -6.904687e-01
        65         2        1.426121e-01
        66         2       -9.614923e-01
        67         2       -4.611853e-01
        68         2        4.715884e-01
        69         2        2.838402e-01
        70         2        1.546434e+00
        71         2       -4.652327e-01
        72         2        4.686977e-01
        73         2       -6.182715e-01
        74         2       -2.207950e-01
        75         2       -1.193832e+00
        76         2        3.950541e-01
        77         2       -6.371203e-01
        78         2        5.029579e-01
        79         2        6.771367e-02
        80         2        1.707054e-01
        81         2        8.962166e-01
        82         2        1.608278e+00
        83         2        7.812080e-03
        84         2        5.092913e-01
        85         2       -2.362254e+00
        86         2       -1.660164e+00
        87         2       -2.807559e-02
        88         2        2.135728e+00
        89         2       -9.555176e-01
        90         2       -5.139010e-01
        91         2       -3.568001e-01
        92         2       -1.246500e+00
        93         2        3.372055e-01
        94         2       -7.572124e-01
        95         2       -4.260633e-01
        96         2       -1.873350e-01
        97         2       -5.428964e-01
        98         2        1.171262e+00
        99         2       -7.547347e-01
       100         2        2.602229e-01
         1         3       -2.132290e+00
         2         3       -1.070214e+00
         3         3       -8.135374e-01
         4         3       -7.010664e-01
         5         3       -1.111488e+00
         6         3       -4.534628e-01
         7         3        7.177713e-01
         8         3       -1.247798e-01
         9         3        1.242112e+00
        10         3        2.565296e-01
        11         3       -9.681795e-01
        12         3       -8.264119e-01
        13         3       -1.834441e-02
        14         3       -6.161634e-01
        15         3       -1.542502e+00
        16         3       -4.560422e-01
        17         3        5.959703e-01
        18         3        8.660373e-01
        19         3        2.451991e-01
        20         3        1.896466e-01
        21         3        5.265760e-01
        22         3        1.574942e+00
        23         3        1.209398e+00
        24         3        1.012124e+00
        25         3        1.384010e+00
        26         3        1.317236e+00
        27         3        5.270451e-01
        28         3        4.247253e-01
        29         3        9.244324e-01
        30         3       -1.818446e+00
        31         3        3.052238e-01
        32         3       -1.736352e-01
        33         3        1.838672e-01
        34         3        2.754893e-01
        35         3        6.593765e-01
        36         3       -2.557147e-01
        37         3        5.192420e-01
        38         3       -9.469528e-01
        39         3        1.247330e+00
        40         3        2.041206e+00
        41         3        5.518780e-01
        42         3        1.840730e+00
        43         3       -2.358761e+00
        44         3        7.057751e-01
        45         3        2.487742e-01
        46         3       -3.128774e-02
        47         3        1.744250e+00
        48         3        2.740413e-02
        49         3        1.763501e+00
        50         3        5.414244e-01
        51         3        9.379599e-01
        52         3        2.280079e+00
        53         3       -3.262691e-01
        54         3        1.061159e+00
        55         3       -2.790842e-01
        56         3       -4.500064e-01
        57         3       -1.500533e+00
        58         3        1.149141e+00
        59         3       -5.148807e-01
        60         3        3.193329e-01
        61         3        4.569914e-01
        62         3        3.054619e-01
        63         3        6.045654e-01
        64         3       -1.432377e+00
        65         3       -6.764030e-01
        66         3       -1.401580e-01
        67         3        8.366337e-01
        68         3        2.270265e-01
        69         3        1.913344e-01
        70         3        5.178796e-01
        71         3       -4.404211e-01
        72         3       -8.162158e-02
        73         3       -1.129658e-01
        74         3        7.598352e-01
        75         3       -3.940430e-01
        76         3       -1.104332e+00
        77         3        1.679746e+00
        78         3        9.021426e-01
        79         3       -1.707830e+00
        80         3        2.501155e-02
        81         3       -1.732321e+00
        82         3        3.374385e-01
        83         3        1.067415e+00
        84         3        1.135997e+00
        85         3       -2.333623e+00
        86         3        1.350817e+00
        87         3       -4.410743e-01
        88         3       -8.834463e-01
        89         3        7.171901e-01
        90         3       -6.552887e-01
        91         3       -6.230633e-01
        92         3       -5.195064e-01
        93         3        2.729369e-01
        94         3        2.092572e+00
        95         3        1.844909e-01
        96         3        2.081136e-01
        97         3        6.035903e-01
        98         3       -1.290099e-01
        99         3        3.892233e-02
       100         3        3.678529e-01
         1         4       -1.389314e+00
         2         4       -7.291195e-03
         3         4        8.384001e-01
         4         4       -4.374796e-01
         5         4        9.200958e-01
         6         4        2.163507e+00
         7         4        6.760074e-01
         8         4        6.515694e-02
         9         4       -1.460216e+00
        10         4        4.030224e-01
        11         4       -2.069555e+00
        12         4        5.282887e-01
        13         4       -1.028409e+00
        14         4        4.066572e-01
        15         4        1.870630e+00
        16         4        4.844715e-01
        17         4       -8.239085e-01
        18         4        1.244643e+00
        19         4        1.815863e+00
        20         4       -2.997936e-01
        21         4       -1.357495e+00
        22         4       -1.153010e-01
        23         4       -4.620767e-01
        24         4        7.541322e-01
        25         4       -1.458975e+00
        26         4        1.115436e+00
        27         4       -1.039056e+00
        28         4       -6.783520e-01
        29         4        3.818276e-01
        30         4       -2.248917e-01
        31         4       -1.634527e+00
        32         4        1.962556e+00
        33         4       -2.628962e-01
        34         4        3.989662e-01
        35         4       -7.326286e-01
        36         4        6.790904e-01
        37         4       -8.639129e-01
        38         4        6.269977e-01
        39         4        1.521277e+00
        40         4       -9.069060e-01
        41         4        4.108690e-01
        42         4        2.630003e-01
        43         4       -8.968600e-01
        44         4       -1.451615e+00
        45         4        6.557138e-01
        46         4       -1.236886e+00
        47         4       -9.623984e-03
        48         4        8.175278e-03
        49         4       -1.926766e+00
        50         4       -3.223088e-02
        51         4        8.002836e-01
        52         4       -6.445134e-01
        53         4        4.850448e-01
        54         4       -2.032308e-02
        55         4        4.525013e-01
        56         4        3.607508e-01
        57         4        6.765986e-01
        58         4        1.931036e-01
        59         4        1.779951e+00
        60         4        2.027218e-01
        61         4       -4.969047e-01
        62         4       -4.842901e-01
        63         4       -2.362434e+00
        64         4        4.145482e-01
        65         4       -2.453863e-01
        66         4        2.911553e-01
        67         4        7.066140e-02
        68         4       -4.712714e-01
        69         4        5.330865e-02
        70         4       -4.278576e-01
        71         4       -2.815478e+00
        72         4        1.243955e+00
        73         4       -5.559585e-01
        74         4        4.908203e-01
        75         4       -1.549502e+00
        76         4       -6.504667e-01
        77         4        1.363087e+00
        78         4        9.912393e-01
        79         4        3.580362e-02
        80         4        2.562571e-01
        81         4        7.519671e-01
        82         4        1.687171e-01
        83         4        6.415988e-01
        84         4        7.060832e-01
        85         4        1.198049e+00
        86         4        6.121311e-01
        87         4       -3.083708e-01
        88         4       -8.580881e-01
        89         4       -3.426303e-01
        90         4       -1.033286e-01
        91         4       -1.334632e+00
        92         4        8.636241e-01
        93         4        1.559134e+00
        94         4        8.395242e-01
        95         4       -4.440963e-01
        96         4       -7.964301e-01
        97         4        2.993106e+00
        98         4       -7.020133e-01
        99         4        6.695195e-01
       100         4       -1.517696e+00
         1         5        1.187895e+00
         2         5       -1.087374e+00
         3         5        3.106809e-01
         4         5       -7.300256e-02
         5         5        6.539142e-01
         6         5       -3.109399e-01
         7         5       -3.625342e-01
         8         5        4.963258e-02
         9         5        2.134726e-01
        10         5       -4.862600e-01
        11         5       -4.703017e-01
        12         5       -4.222032e-01
        13         5        5.013154e-01
        14         5        6.237523e-01
        15         5       -9.243860e-01
        16         5        2.175946e+00
        17         5        7.946228e-01
        18         5        1.999354e+00
        19         5       -2.902363e-01
        20         5       -4.006393e-01
        21         5        6.791417e-01
        22         5       -4.647703e-01
        23         5       -1.133838e+00
        24         5        3.235775e-01
        25         5        8.110035e-01
        26         5        5.388232e-01
        27         5        4.736596e-01
        28         5        1.214462e+00
        29         5        5.993721e-01
        30         5        6.321814e-01
        31         5       -1.701094e-01
        32         5       -3.426097e-01
        33         5        8.457114e-01
        34         5        2.142902e-01
        35         5       -1.497954e+00
        36         5       -4.647712e-01
        37         5       -4.265659e-01
        38         5        9.236707e-01
        39         5       -2.478015e-02
        40         5        1.810757e+00
        41         5       -8.535767e-01
        42         5        2.312756e-01
        43         5        3.902943e-01
        44         5        1.073941e+00
        45         5       -1.204679e-01
        46         5       -3.675542e-01
        47         5        1.303874e-01
        48         5       -1.246636e+00
        49         5        1.409260e-01
        50         5        1.627764e+00
        51         5       -6.376359e-01
        52         5       -5.336141e-01
        53         5       -2.482139e-01
        54         5       -1.860788e-01
        55         5        8.672968e-01
        56         5        1.039637e+00
        57         5        2.209018e-01
        58         5        5.657021e-01
        59         5        1.543944e+00
        60         5        6.079333e-02
        61         5       -6.139177e-01
        62         5        2.079029e-01
        63         5        9.528391e-01
        64         5        1.530343e+00
        65         5        6.372455e-01
        66         5       -8.725369e-01
        67         5       -2.877461e-01
        68         5        1.214710e+00
        69         5       -1.042791e-01
        70         5       -1.054511e+00
        71         5       -9.050662e-01
        72         5       -4.832518e-01
        73         5       -4.934268e-02
        74         5       -6.097598e-01
        75         5       -4.749366e-01
        76         5        8.520056e-01
        77         5        2.037765e-01
        78         5        2.260967e-01
        79         5        5.677865e-01
        80         5        1.477253e+00
        81         5       -1.459034e+00
        82         5       -6.565305e-01
        83         5       -5.670221e-01
        84         5       -1.035813e+00
        85         5        2.623322e-01
        86         5       -1.124909e+00
        87         5        2.365049e-01
        88         5       -9.070987e-02
        89         5       -1.211457e+00
        90         5        9.459566e-02
        91         5        1.624705e+00
        92         5       -5.415288e-01
        93         5        1.067071e-01
        94         5       -9.767078e-01
        95         5        6.062405e-01
        96         5        2.088094e-01
        97         5        1.064558e+00
        98         5       -5.011818e-01
        99         5       -1.483951e-01
       100         5        2.774060e-01
;

param theta:=
    1       -9.224458e-02
    2       -3.656133e-01
    3       -4.993736e-01
    4        2.226756e-01
    5        7.375071e-01
;
param X_true:=
    1        6.593955e-01
    2       -5.327417e-01
    3        1.000536e+00
    4        8.935172e-01
    5        1.213092e+00
    6        2.127042e-01
    7       -7.998598e-01
    8        2.765279e-01
    9       -9.459575e-01
   10       -4.496390e-01
   11       -2.113264e-01
   12        3.732665e-01
   13        1.945921e-01
   14        1.060694e+00
   15        4.010335e-01
   16        1.744242e+00
   17       -3.485630e-01
   18        1.492539e+00
   19        2.889692e-02
   20       -5.537852e-01
   21       -1.906596e-01
   22       -1.785781e+00
   23       -1.626870e+00
   24       -2.051682e-01
   25       -6.494113e-01
   26       -7.022557e-01
   27       -5.700170e-01
   28        4.759396e-01
   29        4.772224e-02
   30        1.825339e+00
   31       -9.016088e-01
   32        1.219947e-01
   33        5.369416e-01
   34       -6.827438e-01
   35       -1.821276e+00
   36        1.537640e-01
   37       -1.120768e+00
   38        1.343867e+00
   39        1.464885e-01
   40        6.376366e-01
   41       -5.095784e-01
   42       -8.664638e-01
   43        1.094418e+00
   44       -4.019737e-01
   45       -4.207829e-01
   46       -9.021782e-01
   47       -7.811996e-01
   48       -7.453602e-01
   49       -1.629636e+00
   50        1.297008e+00
   51       -6.810234e-01
   52       -2.307067e+00
   53        7.360869e-01
   54       -6.391831e-01
   55        8.676812e-01
   56        1.242709e+00
   57        5.638888e-01
   58       -8.570862e-01
   59        1.957078e+00
   60        1.428381e-01
   61       -3.361551e-01
   62        6.713790e-01
   63       -5.038441e-01
   64        2.165455e+00
   65        6.105785e-01
   66       -1.716424e-01
   67       -4.636137e-01
   68        5.387729e-01
   69       -3.081070e-01
   70       -1.721071e+00
   71       -1.025047e+00
   72       -1.700050e-01
   73        1.646111e-01
   74       -6.302189e-01
   75        1.607256e-02
   76        9.022380e-01
   77       -9.328747e-02
   78       -2.469995e-01
   79        1.345730e+00
   80        1.145654e+00
   81       -3.064097e-01
   82       -1.123286e+00
   83       -7.737571e-01
   84       -1.361295e+00
   85        2.398394e+00
   86       -6.901807e-01
   87        2.913398e-01
   88       -5.520649e-01
   89       -1.006159e+00
   90        4.051832e-01
   91        1.490656e+00
   92        3.875305e-01
   93        1.389278e-02
   94       -1.222563e+00
   95        2.143140e-01
   96       -3.561977e-02
   97        1.439857e+00
   98       -8.570526e-01
   99        2.368870e-01
  100       -4.682866e-01
;
param X:=
    1        6.593955e-01
    2       -1.108976e+00
    3        1.321856e+00
    4        6.345376e-01
    5        1.213092e+00
    6        2.127042e-01
    7       -7.875780e-01
    8        2.765279e-01
    9        7.031014e-01
   10       -4.496390e-01
   11       -2.113264e-01
   12        3.732665e-01
   13        8.399701e-01
   14        1.060694e+00
   15        1.830435e-02
   16        1.744242e+00
   17        1.189757e+00
   18        1.783497e+00
   19        2.889692e-02
   20        3.000693e-01
   21       -1.850332e+00
   22       -1.785781e+00
   23       -1.626870e+00
   24       -2.051682e-01
   25       -6.494113e-01
   26       -9.765083e-01
   27       -4.101938e-01
   28        4.759396e-01
   29       -1.857599e-01
   30       -1.090773e+00
   31       -9.016088e-01
   32       -4.408411e-01
   33        5.369416e-01
   34       -1.069035e-02
   35       -1.124806e-01
   36        1.537640e-01
   37       -3.200815e-01
   38        1.343867e+00
   39        1.464885e-01
   40        1.159511e-01
   41       -1.832383e+00
   42       -8.664638e-01
   43        1.094418e+00
   44        1.598830e+00
   45       -1.189033e+00
   46       -2.453441e+00
   47        2.191627e-01
   48        2.136052e-02
   49        1.115720e+00
   50       -9.380244e-03
   51       -1.997324e+00
   52       -2.307067e+00
   53        3.984402e-01
   54       -1.424167e-01
   55       -7.284687e-01
   56        1.242709e+00
   57        5.638888e-01
   58       -2.113418e-01
   59        1.504540e+00
   60        1.428381e-01
   61       -1.423493e+00
   62        6.713790e-01
   63       -2.534331e+00
   64        1.117691e+00
   65       -6.987356e-01
   66        2.434747e-01
   67       -4.636137e-01
   68       -1.144419e+00
   69        3.047050e-01
   70        4.134542e-01
   71       -5.484285e-01
   72        1.986543e+00
   73        1.646111e-01
   74       -6.302189e-01
   75       -1.278718e+00
   76        1.507602e+00
   77        7.691662e-01
   78        9.298184e-01
   79        1.345730e+00
   80        1.145654e+00
   81       -3.064097e-01
   82        3.052536e-01
   83       -1.500396e+00
   84       -8.437803e-01
   85       -1.381853e+00
   86       -6.901807e-01
   87        2.913398e-01
   88       -5.520649e-01
   89       -1.006159e+00
   90        4.051832e-01
   91       -2.288955e-01
   92        8.837919e-01
   93        9.790751e-01
   94       -1.222563e+00
   95        8.237944e-01
   96       -7.800958e-01
   97       -1.173653e+00
   98       -8.570526e-01
   99        1.116869e+00
  100        1.377103e-01
;
param outliervec:=
    1    0
    2    1
    3    1
    4    1
    5    0
    6    0
    7    1
    8    0
    9    1
   10    0
   11    0
   12    0
   13    1
   14    0
   15    1
   16    0
   17    1
   18    1
   19    0
   20    1
   21    1
   22    0
   23    0
   24    0
   25    0
   26    1
   27    1
   28    0
   29    1
   30    1
   31    0
   32    1
   33    0
   34    1
   35    1
   36    0
   37    1
   38    0
   39    0
   40    1
   41    1
   42    0
   43    0
   44    1
   45    1
   46    1
   47    1
   48    1
   49    1
   50    1
   51    1
   52    0
   53    1
   54    1
   55    1
   56    0
   57    0
   58    1
   59    1
   60    0
   61    1
   62    0
   63    1
   64    1
   65    1
   66    1
   67    0
   68    1
   69    1
   70    1
   71    1
   72    1
   73    0
   74    0
   75    1
   76    1
   77    1
   78    1
   79    0
   80    0
   81    0
   82    1
   83    1
   84    1
   85    1
   86    0
   87    0
   88    0
   89    0
   90    0
   91    1
   92    1
   93    1
   94    0
   95    1
   96    1
   97    1
   98    0
   99    1
  100    1
;